p cnf 200 1110
-101 -32 0
-101 -70 0
-101 3 0
-101 -21 0
-101 -27 0
-101 -31 0
-101 35 0
-101 -76 0
-101 81 0
-101 96 0
101 32 70 -3 21 27 31 -35 76 -81 -96 0
-102 -61 0
-102 -14 0
-102 82 0
-102 44 0
-102 -74 0
-102 64 0
-102 13 0
-102 -80 0
-102 -86 0
-102 78 0
102 61 14 -82 -44 74 -64 -13 80 86 -78 0
-103 -82 0
-103 -54 0
-103 70 0
-103 46 0
-103 55 0
-103 37 0
-103 -53 0
-103 -11 0
-103 -25 0
-103 29 0
103 82 54 -70 -46 -55 -37 53 11 25 -29 0
-104 -5 0
-104 -68 0
-104 -98 0
-104 13 0
-104 72 0
-104 69 0
-104 91 0
-104 -18 0
-104 73 0
-104 54 0
104 5 68 98 -13 -72 -69 -91 18 -73 -54 0
-105 -65 0
-105 6 0
-105 38 0
-105 48 0
-105 80 0
-105 -32 0
-105 -29 0
-105 37 0
-105 -4 0
-105 52 0
105 65 -6 -38 -48 -80 32 29 -37 4 -52 0
-106 -85 0
-106 -84 0
-106 -97 0
-106 25 0
-106 71 0
-106 56 0
-106 -8 0
-106 -88 0
-106 24 0
-106 36 0
106 85 84 97 -25 -71 -56 8 88 -24 -36 0
-107 -47 0
-107 96 0
-107 43 0
-107 -18 0
-107 -38 0
-107 -78 0
-107 -41 0
-107 61 0
-107 -64 0
-107 31 0
107 47 -96 -43 18 38 78 41 -61 64 -31 0
-108 86 0
-108 -76 0
-108 34 0
-108 15 0
-108 30 0
-108 -7 0
-108 -64 0
-108 10 0
-108 51 0
-108 -26 0
108 -86 76 -34 -15 -30 7 64 -10 -51 26 0
-109 85 0
-109 2 0
-109 39 0
-109 99 0
-109 1 0
-109 26 0
-109 -92 0
-109 79 0
-109 90 0
-109 -18 0
109 -85 -2 -39 -99 -1 -26 92 -79 -90 18 0
-110 -2 0
-110 69 0
-110 -25 0
-110 -10 0
-110 -37 0
-110 19 0
-110 20 0
-110 -54 0
-110 -9 0
-110 22 0
110 2 -69 25 10 37 -19 -20 54 9 -22 0
101 102 103 104 105 106 107 108 109 110 0
-111 -4 0
-111 93 0
-111 -8 0
-111 66 0
-111 -12 0
-111 29 0
-111 -22 0
-111 42 0
-111 -38 0
-111 -74 0
111 4 -93 8 -66 12 -29 22 -42 38 74 0
-112 95 0
-112 -17 0
-112 -45 0
-112 54 0
-112 7 0
-112 -28 0
-112 -37 0
-112 -19 0
-112 -79 0
-112 -60 0
112 -95 17 45 -54 -7 28 37 19 79 60 0
-113 8 0
-113 33 0
-113 10 0
-113 5 0
-113 14 0
-113 80 0
-113 -78 0
-113 96 0
-113 -60 0
-113 49 0
113 -8 -33 -10 -5 -14 -80 78 -96 60 -49 0
-114 -33 0
-114 19 0
-114 -66 0
-114 6 0
-114 -22 0
-114 -90 0
-114 50 0
-114 -57 0
-114 58 0
-114 -26 0
114 33 -19 66 -6 22 90 -50 57 -58 26 0
-115 -10 0
-115 -55 0
-115 85 0
-115 -3 0
-115 54 0
-115 14 0
-115 -88 0
-115 -19 0
-115 4 0
-115 45 0
115 10 55 -85 3 -54 -14 88 19 -4 -45 0
-116 95 0
-116 37 0
-116 33 0
-116 -84 0
-116 -90 0
-116 -93 0
-116 -35 0
-116 62 0
-116 -18 0
-116 4 0
116 -95 -37 -33 84 90 93 35 -62 18 -4 0
-117 63 0
-117 -37 0
-117 42 0
-117 30 0
-117 18 0
-117 -58 0
-117 99 0
-117 90 0
-117 -25 0
-117 35 0
117 -63 37 -42 -30 -18 58 -99 -90 25 -35 0
-118 -10 0
-118 18 0
-118 -71 0
-118 -70 0
-118 -35 0
-118 77 0
-118 -16 0
-118 69 0
-118 98 0
-118 -62 0
118 10 -18 71 70 35 -77 16 -69 -98 62 0
-119 49 0
-119 -30 0
-119 38 0
-119 48 0
-119 23 0
-119 -78 0
-119 -2 0
-119 25 0
-119 -82 0
-119 -87 0
119 -49 30 -38 -48 -23 78 2 -25 82 87 0
-120 -29 0
-120 41 0
-120 -32 0
-120 75 0
-120 -47 0
-120 33 0
-120 -100 0
-120 24 0
-120 -60 0
-120 35 0
120 29 -41 32 -75 47 -33 100 -24 60 -35 0
111 112 113 114 115 116 117 118 119 120 0
-121 27 0
-121 -33 0
-121 -73 0
-121 -6 0
-121 96 0
-121 -38 0
-121 -77 0
-121 -71 0
-121 -95 0
-121 -55 0
121 -27 33 73 6 -96 38 77 71 95 55 0
-122 64 0
-122 -57 0
-122 22 0
-122 100 0
-122 17 0
-122 -33 0
-122 -18 0
-122 23 0
-122 6 0
-122 -7 0
122 -64 57 -22 -100 -17 33 18 -23 -6 7 0
-123 26 0
-123 -90 0
-123 -86 0
-123 -61 0
-123 99 0
-123 88 0
-123 -46 0
-123 15 0
-123 72 0
-123 25 0
123 -26 90 86 61 -99 -88 46 -15 -72 -25 0
-124 77 0
-124 42 0
-124 22 0
-124 12 0
-124 -10 0
-124 38 0
-124 -88 0
-124 82 0
-124 -95 0
-124 9 0
124 -77 -42 -22 -12 10 -38 88 -82 95 -9 0
-125 91 0
-125 70 0
-125 -1 0
-125 40 0
-125 -21 0
-125 84 0
-125 64 0
-125 58 0
-125 -14 0
-125 -96 0
125 -91 -70 1 -40 21 -84 -64 -58 14 96 0
-126 -81 0
-126 58 0
-126 -93 0
-126 89 0
-126 -71 0
-126 56 0
-126 57 0
-126 -92 0
-126 -49 0
-126 -64 0
126 81 -58 93 -89 71 -56 -57 92 49 64 0
-127 -82 0
-127 -45 0
-127 -84 0
-127 47 0
-127 66 0
-127 34 0
-127 95 0
-127 11 0
-127 -26 0
-127 88 0
127 82 45 84 -47 -66 -34 -95 -11 26 -88 0
-128 72 0
-128 88 0
-128 -57 0
-128 95 0
-128 -82 0
-128 15 0
-128 -2 0
-128 75 0
-128 -42 0
-128 -97 0
128 -72 -88 57 -95 82 -15 2 -75 42 97 0
-129 95 0
-129 46 0
-129 -28 0
-129 73 0
-129 -78 0
-129 -7 0
-129 -89 0
-129 -43 0
-129 55 0
-129 -79 0
129 -95 -46 28 -73 78 7 89 43 -55 79 0
-130 8 0
-130 21 0
-130 1 0
-130 -23 0
-130 -75 0
-130 14 0
-130 -76 0
-130 -18 0
-130 44 0
-130 5 0
130 -8 -21 -1 23 75 -14 76 18 -44 -5 0
121 122 123 124 125 126 127 128 129 130 0
-131 -46 0
-131 60 0
-131 53 0
-131 86 0
-131 -12 0
-131 73 0
-131 48 0
-131 100 0
-131 -50 0
-131 24 0
131 46 -60 -53 -86 12 -73 -48 -100 50 -24 0
-132 43 0
-132 89 0
-132 14 0
-132 -65 0
-132 18 0
-132 69 0
-132 -5 0
-132 -68 0
-132 -81 0
-132 -53 0
132 -43 -89 -14 65 -18 -69 5 68 81 53 0
-133 -38 0
-133 21 0
-133 -49 0
-133 58 0
-133 -76 0
-133 35 0
-133 -17 0
-133 -93 0
-133 -13 0
-133 -75 0
133 38 -21 49 -58 76 -35 17 93 13 75 0
-134 31 0
-134 -18 0
-134 6 0
-134 -99 0
-134 -82 0
-134 35 0
-134 14 0
-134 54 0
-134 86 0
-134 59 0
134 -31 18 -6 99 82 -35 -14 -54 -86 -59 0
-135 -93 0
-135 -100 0
-135 81 0
-135 73 0
-135 -68 0
-135 -47 0
-135 -10 0
-135 4 0
-135 -37 0
-135 74 0
135 93 100 -81 -73 68 47 10 -4 37 -74 0
-136 -22 0
-136 -83 0
-136 -1 0
-136 87 0
-136 -49 0
-136 20 0
-136 53 0
-136 58 0
-136 -43 0
-136 41 0
136 22 83 1 -87 49 -20 -53 -58 43 -41 0
-137 -48 0
-137 -34 0
-137 65 0
-137 68 0
-137 73 0
-137 61 0
-137 43 0
-137 -76 0
-137 66 0
-137 97 0
137 48 34 -65 -68 -73 -61 -43 76 -66 -97 0
-138 84 0
-138 -71 0
-138 93 0
-138 -10 0
-138 63 0
-138 -70 0
-138 12 0
-138 -52 0
-138 -78 0
-138 96 0
138 -84 71 -93 10 -63 70 -12 52 78 -96 0
-139 -66 0
-139 55 0
-139 15 0
-139 -20 0
-139 78 0
-139 -83 0
-139 37 0
-139 -10 0
-139 -5 0
-139 100 0
139 66 -55 -15 20 -78 83 -37 10 5 -100 0
-140 89 0
-140 -26 0
-140 -20 0
-140 72 0
-140 -63 0
-140 22 0
-140 37 0
-140 25 0
-140 47 0
-140 -43 0
140 -89 26 20 -72 63 -22 -37 -25 -47 43 0
131 132 133 134 135 136 137 138 139 140 0
-141 78 0
-141 -38 0
-141 94 0
-141 91 0
-141 46 0
-141 -60 0
-141 7 0
-141 65 0
-141 -50 0
-141 -19 0
141 -78 38 -94 -91 -46 60 -7 -65 50 19 0
-142 85 0
-142 33 0
-142 -64 0
-142 42 0
-142 -9 0
-142 -18 0
-142 -69 0
-142 -79 0
-142 55 0
-142 -91 0
142 -85 -33 64 -42 9 18 69 79 -55 91 0
-143 58 0
-143 -95 0
-143 -6 0
-143 74 0
-143 100 0
-143 -16 0
-143 -61 0
-143 34 0
-143 77 0
-143 17 0
143 -58 95 6 -74 -100 16 61 -34 -77 -17 0
-144 89 0
-144 91 0
-144 63 0
-144 -81 0
-144 -29 0
-144 82 0
-144 74 0
-144 17 0
-144 -57 0
-144 52 0
144 -89 -91 -63 81 29 -82 -74 -17 57 -52 0
-145 -31 0
-145 -69 0
-145 8 0
-145 53 0
-145 61 0
-145 -23 0
-145 -62 0
-145 -63 0
-145 96 0
-145 -1 0
145 31 69 -8 -53 -61 23 62 63 -96 1 0
-146 -6 0
-146 58 0
-146 78 0
-146 22 0
-146 2 0
-146 87 0
-146 71 0
-146 89 0
-146 31 0
-146 39 0
146 6 -58 -78 -22 -2 -87 -71 -89 -31 -39 0
-147 15 0
-147 35 0
-147 73 0
-147 -42 0
-147 -24 0
-147 83 0
-147 36 0
-147 -26 0
-147 -58 0
-147 -9 0
147 -15 -35 -73 42 24 -83 -36 26 58 9 0
-148 -94 0
-148 91 0
-148 29 0
-148 1 0
-148 -30 0
-148 -87 0
-148 19 0
-148 -43 0
-148 -84 0
-148 72 0
148 94 -91 -29 -1 30 87 -19 43 84 -72 0
-149 56 0
-149 -70 0
-149 -5 0
-149 14 0
-149 -39 0
-149 75 0
-149 -33 0
-149 -52 0
-149 89 0
-149 53 0
149 -56 70 5 -14 39 -75 33 52 -89 -53 0
-150 33 0
-150 -88 0
-150 -30 0
-150 16 0
-150 84 0
-150 -18 0
-150 -52 0
-150 47 0
-150 -75 0
-150 15 0
150 -33 88 30 -16 -84 18 52 -47 75 -15 0
141 142 143 144 145 146 147 148 149 150 0
-151 -35 0
-151 12 0
-151 -95 0
-151 -64 0
-151 68 0
-151 22 0
-151 -27 0
-151 -77 0
-151 79 0
-151 65 0
151 35 -12 95 64 -68 -22 27 77 -79 -65 0
-152 36 0
-152 -51 0
-152 78 0
-152 -1 0
-152 56 0
-152 -33 0
-152 -53 0
-152 89 0
-152 -47 0
-152 31 0
152 -36 51 -78 1 -56 33 53 -89 47 -31 0
-153 82 0
-153 35 0
-153 -40 0
-153 -98 0
-153 -63 0
-153 24 0
-153 -97 0
-153 -15 0
-153 53 0
-153 -87 0
153 -82 -35 40 98 63 -24 97 15 -53 87 0
-154 5 0
-154 -34 0
-154 56 0
-154 -53 0
-154 45 0
-154 -48 0
-154 -10 0
-154 3 0
-154 65 0
-154 -86 0
154 -5 34 -56 53 -45 48 10 -3 -65 86 0
-155 -38 0
-155 61 0
-155 58 0
-155 93 0
-155 75 0
-155 74 0
-155 88 0
-155 82 0
-155 99 0
-155 -11 0
155 38 -61 -58 -93 -75 -74 -88 -82 -99 11 0
-156 18 0
-156 49 0
-156 -100 0
-156 -63 0
-156 -50 0
-156 64 0
-156 -7 0
-156 -94 0
-156 84 0
-156 15 0
156 -18 -49 100 63 50 -64 7 94 -84 -15 0
-157 36 0
-157 -8 0
-157 -84 0
-157 79 0
-157 19 0
-157 -44 0
-157 50 0
-157 -60 0
-157 -23 0
-157 -31 0
157 -36 8 84 -79 -19 44 -50 60 23 31 0
-158 87 0
-158 24 0
-158 -66 0
-158 71 0
-158 59 0
-158 100 0
-158 -62 0
-158 43 0
-158 23 0
-158 -4 0
158 -87 -24 66 -71 -59 -100 62 -43 -23 4 0
-159 43 0
-159 -35 0
-159 -93 0
-159 32 0
-159 11 0
-159 -22 0
-159 88 0
-159 27 0
-159 -48 0
-159 -90 0
159 -43 35 93 -32 -11 22 -88 -27 48 90 0
-160 51 0
-160 -56 0
-160 -14 0
-160 -27 0
-160 -83 0
-160 53 0
-160 -4 0
-160 -1 0
-160 -35 0
-160 -5 0
160 -51 56 14 27 83 -53 4 1 35 5 0
151 152 153 154 155 156 157 158 159 160 0
-161 1 0
-161 80 0
-161 96 0
-161 -21 0
-161 -2 0
-161 69 0
-161 71 0
-161 62 0
-161 -81 0
-161 17 0
161 -1 -80 -96 21 2 -69 -71 -62 81 -17 0
-162 -72 0
-162 43 0
-162 -87 0
-162 18 0
-162 73 0
-162 -44 0
-162 6 0
-162 -64 0
-162 -81 0
-162 -28 0
162 72 -43 87 -18 -73 44 -6 64 81 28 0
-163 35 0
-163 12 0
-163 90 0
-163 -45 0
-163 100 0
-163 -73 0
-163 -18 0
-163 98 0
-163 5 0
-163 30 0
163 -35 -12 -90 45 -100 73 18 -98 -5 -30 0
-164 12 0
-164 95 0
-164 -20 0
-164 -9 0
-164 -70 0
-164 -1 0
-164 11 0
-164 -19 0
-164 -46 0
-164 88 0
164 -12 -95 20 9 70 1 -11 19 46 -88 0
-165 62 0
-165 2 0
-165 66 0
-165 -58 0
-165 40 0
-165 45 0
-165 -98 0
-165 55 0
-165 32 0
-165 4 0
165 -62 -2 -66 58 -40 -45 98 -55 -32 -4 0
-166 -50 0
-166 -4 0
-166 13 0
-166 31 0
-166 -63 0
-166 42 0
-166 44 0
-166 -21 0
-166 92 0
-166 18 0
166 50 4 -13 -31 63 -42 -44 21 -92 -18 0
-167 -50 0
-167 11 0
-167 71 0
-167 96 0
-167 1 0
-167 -68 0
-167 -3 0
-167 -78 0
-167 10 0
-167 95 0
167 50 -11 -71 -96 -1 68 3 78 -10 -95 0
-168 -60 0
-168 -47 0
-168 81 0
-168 42 0
-168 -68 0
-168 -66 0
-168 70 0
-168 -59 0
-168 -74 0
-168 94 0
168 60 47 -81 -42 68 66 -70 59 74 -94 0
-169 15 0
-169 -83 0
-169 99 0
-169 -74 0
-169 97 0
-169 -16 0
-169 -47 0
-169 96 0
-169 -78 0
-169 93 0
169 -15 83 -99 74 -97 16 47 -96 78 -93 0
-170 66 0
-170 -55 0
-170 41 0
-170 -22 0
-170 -45 0
-170 82 0
-170 -47 0
-170 -54 0
-170 -44 0
-170 -84 0
170 -66 55 -41 22 45 -82 47 54 44 84 0
161 162 163 164 165 166 167 168 169 170 0
-171 -42 0
-171 22 0
-171 -73 0
-171 72 0
-171 91 0
-171 14 0
-171 67 0
-171 -53 0
-171 -83 0
-171 -66 0
171 42 -22 73 -72 -91 -14 -67 53 83 66 0
-172 69 0
-172 -74 0
-172 12 0
-172 34 0
-172 46 0
-172 -38 0
-172 -61 0
-172 -70 0
-172 43 0
-172 -17 0
172 -69 74 -12 -34 -46 38 61 70 -43 17 0
-173 -62 0
-173 54 0
-173 -67 0
-173 -32 0
-173 23 0
-173 -73 0
-173 -20 0
-173 47 0
-173 -59 0
-173 -48 0
173 62 -54 67 32 -23 73 20 -47 59 48 0
-174 -61 0
-174 -12 0
-174 -80 0
-174 21 0
-174 -60 0
-174 -75 0
-174 71 0
-174 -66 0
-174 -70 0
-174 57 0
174 61 12 80 -21 60 75 -71 66 70 -57 0
-175 98 0
-175 -1 0
-175 12 0
-175 -75 0
-175 85 0
-175 95 0
-175 62 0
-175 82 0
-175 -56 0
-175 83 0
175 -98 1 -12 75 -85 -95 -62 -82 56 -83 0
-176 -87 0
-176 58 0
-176 -45 0
-176 21 0
-176 -78 0
-176 9 0
-176 63 0
-176 -49 0
-176 36 0
-176 -10 0
176 87 -58 45 -21 78 -9 -63 49 -36 10 0
-177 -20 0
-177 -95 0
-177 81 0
-177 -36 0
-177 80 0
-177 -63 0
-177 -78 0
-177 -70 0
-177 -72 0
-177 -44 0
177 20 95 -81 36 -80 63 78 70 72 44 0
-178 81 0
-178 -46 0
-178 79 0
-178 -42 0
-178 30 0
-178 68 0
-178 53 0
-178 14 0
-178 -1 0
-178 70 0
178 -81 46 -79 42 -30 -68 -53 -14 1 -70 0
-179 -96 0
-179 42 0
-179 35 0
-179 -83 0
-179 61 0
-179 -99 0
-179 -4 0
-179 -2 0
-179 65 0
-179 -68 0
179 96 -42 -35 83 -61 99 4 2 -65 68 0
-180 20 0
-180 -26 0
-180 -18 0
-180 -30 0
-180 -40 0
-180 68 0
-180 5 0
-180 39 0
-180 64 0
-180 -66 0
180 -20 26 18 30 40 -68 -5 -39 -64 66 0
171 172 173 174 175 176 177 178 179 180 0
-181 -34 0
-181 72 0
-181 -16 0
-181 -22 0
-181 -87 0
-181 -20 0
-181 -88 0
-181 15 0
-181 -4 0
-181 52 0
181 34 -72 16 22 87 20 88 -15 4 -52 0
-182 -91 0
-182 15 0
-182 30 0
-182 34 0
-182 -90 0
-182 45 0
-182 83 0
-182 40 0
-182 -73 0
-182 47 0
182 91 -15 -30 -34 90 -45 -83 -40 73 -47 0
-183 59 0
-183 14 0
-183 18 0
-183 -62 0
-183 12 0
-183 61 0
-183 -78 0
-183 38 0
-183 56 0
-183 16 0
183 -59 -14 -18 62 -12 -61 78 -38 -56 -16 0
-184 61 0
-184 85 0
-184 -47 0
-184 82 0
-184 -29 0
-184 18 0
-184 44 0
-184 -60 0
-184 -15 0
-184 67 0
184 -61 -85 47 -82 29 -18 -44 60 15 -67 0
-185 -51 0
-185 -34 0
-185 27 0
-185 37 0
-185 -17 0
-185 -19 0
-185 -86 0
-185 41 0
-185 89 0
-185 -11 0
185 51 34 -27 -37 17 19 86 -41 -89 11 0
-186 48 0
-186 -90 0
-186 -50 0
-186 -42 0
-186 -69 0
-186 15 0
-186 20 0
-186 -39 0
-186 -81 0
-186 -51 0
186 -48 90 50 42 69 -15 -20 39 81 51 0
-187 -26 0
-187 -68 0
-187 89 0
-187 -76 0
-187 86 0
-187 74 0
-187 -53 0
-187 -79 0
-187 50 0
-187 51 0
187 26 68 -89 76 -86 -74 53 79 -50 -51 0
-188 18 0
-188 72 0
-188 79 0
-188 46 0
-188 43 0
-188 32 0
-188 -54 0
-188 -15 0
-188 -82 0
-188 84 0
188 -18 -72 -79 -46 -43 -32 54 15 82 -84 0
-189 68 0
-189 33 0
-189 62 0
-189 61 0
-189 71 0
-189 -20 0
-189 84 0
-189 88 0
-189 81 0
-189 73 0
189 -68 -33 -62 -61 -71 20 -84 -88 -81 -73 0
-190 59 0
-190 16 0
-190 61 0
-190 11 0
-190 -65 0
-190 45 0
-190 -63 0
-190 -37 0
-190 -9 0
-190 -80 0
190 -59 -16 -61 -11 65 -45 63 37 9 80 0
181 182 183 184 185 186 187 188 189 190 0
-191 -59 0
-191 -51 0
-191 -48 0
-191 -36 0
-191 -55 0
-191 69 0
-191 -97 0
-191 -53 0
-191 46 0
-191 -32 0
191 59 51 48 36 55 -69 97 53 -46 32 0
-192 -87 0
-192 12 0
-192 79 0
-192 60 0
-192 -3 0
-192 -54 0
-192 -20 0
-192 11 0
-192 -77 0
-192 -10 0
192 87 -12 -79 -60 3 54 20 -11 77 10 0
-193 35 0
-193 -24 0
-193 -86 0
-193 -100 0
-193 -76 0
-193 -36 0
-193 -81 0
-193 22 0
-193 78 0
-193 -20 0
193 -35 24 86 100 76 36 81 -22 -78 20 0
-194 60 0
-194 67 0
-194 -69 0
-194 -51 0
-194 77 0
-194 42 0
-194 47 0
-194 2 0
-194 35 0
-194 -1 0
194 -60 -67 69 51 -77 -42 -47 -2 -35 1 0
-195 85 0
-195 -44 0
-195 -24 0
-195 76 0
-195 21 0
-195 33 0
-195 -2 0
-195 -8 0
-195 -71 0
-195 69 0
195 -85 44 24 -76 -21 -33 2 8 71 -69 0
-196 -48 0
-196 -50 0
-196 -45 0
-196 96 0
-196 59 0
-196 -44 0
-196 -65 0
-196 -1 0
-196 -15 0
-196 -32 0
196 48 50 45 -96 -59 44 65 1 15 32 0
-197 87 0
-197 -20 0
-197 98 0
-197 -46 0
-197 -69 0
-197 -70 0
-197 97 0
-197 52 0
-197 -100 0
-197 -33 0
197 -87 20 -98 46 69 70 -97 -52 100 33 0
-198 51 0
-198 -25 0
-198 -95 0
-198 70 0
-198 76 0
-198 36 0
-198 24 0
-198 -81 0
-198 83 0
-198 55 0
198 -51 25 95 -70 -76 -36 -24 81 -83 -55 0
-199 84 0
-199 -41 0
-199 18 0
-199 -23 0
-199 -85 0
-199 55 0
-199 -12 0
-199 36 0
-199 67 0
-199 -40 0
199 -84 41 -18 23 85 -55 12 -36 -67 40 0
-200 21 0
-200 -15 0
-200 5 0
-200 -56 0
-200 75 0
-200 61 0
-200 -55 0
-200 63 0
-200 -13 0
-200 -19 0
200 -21 15 -5 56 -75 -61 55 -63 13 19 0
191 192 193 194 195 196 197 198 199 200 0
